c Generated with `cnfgen`
c (C) 2012-2019 Massimo Lauria <massimo.lauria@uniroma1.it>
c https://massimolauria.net/cnfgen
c
c COMMAND LINE: cnfgen --seed 1 -o ./tseitin/tseitin.grid9.s1.cnf tseitin --grid 9 9 --savegraph ./tseitin/tseitin.grid9.s1.graph --graphformat dot --charge randomeven
c
p cnf 144 512
1 2 0
-1 -2 0
1 3 4 0
1 -3 -4 0
-1 3 -4 0
-1 -3 4 0
3 5 -6 0
3 -5 6 0
-3 5 6 0
-3 -5 -6 0
5 7 -8 0
5 -7 8 0
-5 7 8 0
-5 -7 -8 0
7 9 10 0
7 -9 -10 0
-7 9 -10 0
-7 -9 10 0
9 11 12 0
9 -11 -12 0
-9 11 -12 0
-9 -11 12 0
11 13 14 0
11 -13 -14 0
-11 13 -14 0
-11 -13 14 0
13 15 -16 0
13 -15 16 0
-13 15 16 0
-13 -15 -16 0
15 -17 0
-15 17 0
2 18 -19 0
2 -18 19 0
-2 18 19 0
-2 -18 -19 0
4 18 20 -21 0
4 18 -20 21 0
4 -18 20 21 0
4 -18 -20 -21 0
-4 18 20 21 0
-4 18 -20 -21 0
-4 -18 20 -21 0
-4 -18 -20 21 0
6 20 22 -23 0
6 20 -22 23 0
6 -20 22 23 0
6 -20 -22 -23 0
-6 20 22 23 0
-6 20 -22 -23 0
-6 -20 22 -23 0
-6 -20 -22 23 0
8 22 24 -25 0
8 22 -24 25 0
8 -22 24 25 0
8 -22 -24 -25 0
-8 22 24 25 0
-8 22 -24 -25 0
-8 -22 24 -25 0
-8 -22 -24 25 0
10 24 26 -27 0
10 24 -26 27 0
10 -24 26 27 0
10 -24 -26 -27 0
-10 24 26 27 0
-10 24 -26 -27 0
-10 -24 26 -27 0
-10 -24 -26 27 0
12 26 28 -29 0
12 26 -28 29 0
12 -26 28 29 0
12 -26 -28 -29 0
-12 26 28 29 0
-12 26 -28 -29 0
-12 -26 28 -29 0
-12 -26 -28 29 0
14 28 30 -31 0
14 28 -30 31 0
14 -28 30 31 0
14 -28 -30 -31 0
-14 28 30 31 0
-14 28 -30 -31 0
-14 -28 30 -31 0
-14 -28 -30 31 0
16 30 32 33 0
16 30 -32 -33 0
16 -30 32 -33 0
16 -30 -32 33 0
-16 30 32 -33 0
-16 30 -32 33 0
-16 -30 32 33 0
-16 -30 -32 -33 0
17 32 34 0
17 -32 -34 0
-17 32 -34 0
-17 -32 34 0
19 35 -36 0
19 -35 36 0
-19 35 36 0
-19 -35 -36 0
21 35 37 38 0
21 35 -37 -38 0
21 -35 37 -38 0
21 -35 -37 38 0
-21 35 37 -38 0
-21 35 -37 38 0
-21 -35 37 38 0
-21 -35 -37 -38 0
23 37 39 40 0
23 37 -39 -40 0
23 -37 39 -40 0
23 -37 -39 40 0
-23 37 39 -40 0
-23 37 -39 40 0
-23 -37 39 40 0
-23 -37 -39 -40 0
25 39 41 42 0
25 39 -41 -42 0
25 -39 41 -42 0
25 -39 -41 42 0
-25 39 41 -42 0
-25 39 -41 42 0
-25 -39 41 42 0
-25 -39 -41 -42 0
27 41 43 44 0
27 41 -43 -44 0
27 -41 43 -44 0
27 -41 -43 44 0
-27 41 43 -44 0
-27 41 -43 44 0
-27 -41 43 44 0
-27 -41 -43 -44 0
29 43 45 46 0
29 43 -45 -46 0
29 -43 45 -46 0
29 -43 -45 46 0
-29 43 45 -46 0
-29 43 -45 46 0
-29 -43 45 46 0
-29 -43 -45 -46 0
31 45 47 -48 0
31 45 -47 48 0
31 -45 47 48 0
31 -45 -47 -48 0
-31 45 47 48 0
-31 45 -47 -48 0
-31 -45 47 -48 0
-31 -45 -47 48 0
33 47 49 -50 0
33 47 -49 50 0
33 -47 49 50 0
33 -47 -49 -50 0
-33 47 49 50 0
-33 47 -49 -50 0
-33 -47 49 -50 0
-33 -47 -49 50 0
34 49 -51 0
34 -49 51 0
-34 49 51 0
-34 -49 -51 0
36 52 -53 0
36 -52 53 0
-36 52 53 0
-36 -52 -53 0
38 52 54 -55 0
38 52 -54 55 0
38 -52 54 55 0
38 -52 -54 -55 0
-38 52 54 55 0
-38 52 -54 -55 0
-38 -52 54 -55 0
-38 -52 -54 55 0
40 54 56 57 0
40 54 -56 -57 0
40 -54 56 -57 0
40 -54 -56 57 0
-40 54 56 -57 0
-40 54 -56 57 0
-40 -54 56 57 0
-40 -54 -56 -57 0
42 56 58 -59 0
42 56 -58 59 0
42 -56 58 59 0
42 -56 -58 -59 0
-42 56 58 59 0
-42 56 -58 -59 0
-42 -56 58 -59 0
-42 -56 -58 59 0
44 58 60 61 0
44 58 -60 -61 0
44 -58 60 -61 0
44 -58 -60 61 0
-44 58 60 -61 0
-44 58 -60 61 0
-44 -58 60 61 0
-44 -58 -60 -61 0
46 60 62 -63 0
46 60 -62 63 0
46 -60 62 63 0
46 -60 -62 -63 0
-46 60 62 63 0
-46 60 -62 -63 0
-46 -60 62 -63 0
-46 -60 -62 63 0
48 62 64 -65 0
48 62 -64 65 0
48 -62 64 65 0
48 -62 -64 -65 0
-48 62 64 65 0
-48 62 -64 -65 0
-48 -62 64 -65 0
-48 -62 -64 65 0
50 64 66 67 0
50 64 -66 -67 0
50 -64 66 -67 0
50 -64 -66 67 0
-50 64 66 -67 0
-50 64 -66 67 0
-50 -64 66 67 0
-50 -64 -66 -67 0
51 66 -68 0
51 -66 68 0
-51 66 68 0
-51 -66 -68 0
53 69 70 0
53 -69 -70 0
-53 69 -70 0
-53 -69 70 0
55 69 71 72 0
55 69 -71 -72 0
55 -69 71 -72 0
55 -69 -71 72 0
-55 69 71 -72 0
-55 69 -71 72 0
-55 -69 71 72 0
-55 -69 -71 -72 0
57 71 73 -74 0
57 71 -73 74 0
57 -71 73 74 0
57 -71 -73 -74 0
-57 71 73 74 0
-57 71 -73 -74 0
-57 -71 73 -74 0
-57 -71 -73 74 0
59 73 75 76 0
59 73 -75 -76 0
59 -73 75 -76 0
59 -73 -75 76 0
-59 73 75 -76 0
-59 73 -75 76 0
-59 -73 75 76 0
-59 -73 -75 -76 0
61 75 77 78 0
61 75 -77 -78 0
61 -75 77 -78 0
61 -75 -77 78 0
-61 75 77 -78 0
-61 75 -77 78 0
-61 -75 77 78 0
-61 -75 -77 -78 0
63 77 79 -80 0
63 77 -79 80 0
63 -77 79 80 0
63 -77 -79 -80 0
-63 77 79 80 0
-63 77 -79 -80 0
-63 -77 79 -80 0
-63 -77 -79 80 0
65 79 81 -82 0
65 79 -81 82 0
65 -79 81 82 0
65 -79 -81 -82 0
-65 79 81 82 0
-65 79 -81 -82 0
-65 -79 81 -82 0
-65 -79 -81 82 0
67 81 83 -84 0
67 81 -83 84 0
67 -81 83 84 0
67 -81 -83 -84 0
-67 81 83 84 0
-67 81 -83 -84 0
-67 -81 83 -84 0
-67 -81 -83 84 0
68 83 85 0
68 -83 -85 0
-68 83 -85 0
-68 -83 85 0
70 86 87 0
70 -86 -87 0
-70 86 -87 0
-70 -86 87 0
72 86 88 -89 0
72 86 -88 89 0
72 -86 88 89 0
72 -86 -88 -89 0
-72 86 88 89 0
-72 86 -88 -89 0
-72 -86 88 -89 0
-72 -86 -88 89 0
74 88 90 91 0
74 88 -90 -91 0
74 -88 90 -91 0
74 -88 -90 91 0
-74 88 90 -91 0
-74 88 -90 91 0
-74 -88 90 91 0
-74 -88 -90 -91 0
76 90 92 93 0
76 90 -92 -93 0
76 -90 92 -93 0
76 -90 -92 93 0
-76 90 92 -93 0
-76 90 -92 93 0
-76 -90 92 93 0
-76 -90 -92 -93 0
78 92 94 95 0
78 92 -94 -95 0
78 -92 94 -95 0
78 -92 -94 95 0
-78 92 94 -95 0
-78 92 -94 95 0
-78 -92 94 95 0
-78 -92 -94 -95 0
80 94 96 -97 0
80 94 -96 97 0
80 -94 96 97 0
80 -94 -96 -97 0
-80 94 96 97 0
-80 94 -96 -97 0
-80 -94 96 -97 0
-80 -94 -96 97 0
82 96 98 99 0
82 96 -98 -99 0
82 -96 98 -99 0
82 -96 -98 99 0
-82 96 98 -99 0
-82 96 -98 99 0
-82 -96 98 99 0
-82 -96 -98 -99 0
84 98 100 -101 0
84 98 -100 101 0
84 -98 100 101 0
84 -98 -100 -101 0
-84 98 100 101 0
-84 98 -100 -101 0
-84 -98 100 -101 0
-84 -98 -100 101 0
85 100 -102 0
85 -100 102 0
-85 100 102 0
-85 -100 -102 0
87 103 -104 0
87 -103 104 0
-87 103 104 0
-87 -103 -104 0
89 103 105 -106 0
89 103 -105 106 0
89 -103 105 106 0
89 -103 -105 -106 0
-89 103 105 106 0
-89 103 -105 -106 0
-89 -103 105 -106 0
-89 -103 -105 106 0
91 105 107 108 0
91 105 -107 -108 0
91 -105 107 -108 0
91 -105 -107 108 0
-91 105 107 -108 0
-91 105 -107 108 0
-91 -105 107 108 0
-91 -105 -107 -108 0
93 107 109 -110 0
93 107 -109 110 0
93 -107 109 110 0
93 -107 -109 -110 0
-93 107 109 110 0
-93 107 -109 -110 0
-93 -107 109 -110 0
-93 -107 -109 110 0
95 109 111 -112 0
95 109 -111 112 0
95 -109 111 112 0
95 -109 -111 -112 0
-95 109 111 112 0
-95 109 -111 -112 0
-95 -109 111 -112 0
-95 -109 -111 112 0
97 111 113 -114 0
97 111 -113 114 0
97 -111 113 114 0
97 -111 -113 -114 0
-97 111 113 114 0
-97 111 -113 -114 0
-97 -111 113 -114 0
-97 -111 -113 114 0
99 113 115 116 0
99 113 -115 -116 0
99 -113 115 -116 0
99 -113 -115 116 0
-99 113 115 -116 0
-99 113 -115 116 0
-99 -113 115 116 0
-99 -113 -115 -116 0
101 115 117 -118 0
101 115 -117 118 0
101 -115 117 118 0
101 -115 -117 -118 0
-101 115 117 118 0
-101 115 -117 -118 0
-101 -115 117 -118 0
-101 -115 -117 118 0
102 117 -119 0
102 -117 119 0
-102 117 119 0
-102 -117 -119 0
104 120 -121 0
104 -120 121 0
-104 120 121 0
-104 -120 -121 0
106 120 122 123 0
106 120 -122 -123 0
106 -120 122 -123 0
106 -120 -122 123 0
-106 120 122 -123 0
-106 120 -122 123 0
-106 -120 122 123 0
-106 -120 -122 -123 0
108 122 124 -125 0
108 122 -124 125 0
108 -122 124 125 0
108 -122 -124 -125 0
-108 122 124 125 0
-108 122 -124 -125 0
-108 -122 124 -125 0
-108 -122 -124 125 0
110 124 126 -127 0
110 124 -126 127 0
110 -124 126 127 0
110 -124 -126 -127 0
-110 124 126 127 0
-110 124 -126 -127 0
-110 -124 126 -127 0
-110 -124 -126 127 0
112 126 128 129 0
112 126 -128 -129 0
112 -126 128 -129 0
112 -126 -128 129 0
-112 126 128 -129 0
-112 126 -128 129 0
-112 -126 128 129 0
-112 -126 -128 -129 0
114 128 130 131 0
114 128 -130 -131 0
114 -128 130 -131 0
114 -128 -130 131 0
-114 128 130 -131 0
-114 128 -130 131 0
-114 -128 130 131 0
-114 -128 -130 -131 0
116 130 132 -133 0
116 130 -132 133 0
116 -130 132 133 0
116 -130 -132 -133 0
-116 130 132 133 0
-116 130 -132 -133 0
-116 -130 132 -133 0
-116 -130 -132 133 0
118 132 134 135 0
118 132 -134 -135 0
118 -132 134 -135 0
118 -132 -134 135 0
-118 132 134 -135 0
-118 132 -134 135 0
-118 -132 134 135 0
-118 -132 -134 -135 0
119 134 136 0
119 -134 -136 0
-119 134 -136 0
-119 -134 136 0
121 137 0
-121 -137 0
123 137 -138 0
123 -137 138 0
-123 137 138 0
-123 -137 -138 0
125 138 139 0
125 -138 -139 0
-125 138 -139 0
-125 -138 139 0
127 139 -140 0
127 -139 140 0
-127 139 140 0
-127 -139 -140 0
129 140 -141 0
129 -140 141 0
-129 140 141 0
-129 -140 -141 0
131 141 -142 0
131 -141 142 0
-131 141 142 0
-131 -141 -142 0
133 142 143 0
133 -142 -143 0
-133 142 -143 0
-133 -142 143 0
135 143 -144 0
135 -143 144 0
-135 143 144 0
-135 -143 -144 0
136 144 0
-136 -144 0
